NAME: random-33-2123
TYPE: TSP
COMMENT: size=33 seed=2123
DIMENSION: 68
EDGE_WEIGHT_TYPE: EUC_2D
NODE_COORD_SECTION
+0 261 114
-0 261 114
+1 633 248
-1 859 667
+2 555 559
-2 462 301
+3 208 935
-3 290 641
+4 893 315
-4 309 49
+5 27 461
-5 457 486
+6 868 413
-6 12 158
+7 67 469
-7 927 752
+8 597 141
-8 16 547
+9 496 892
-9 576 558
+10 913 661
-10 841 775
+11 854 997
-11 64 127
+12 896 789
-12 454 761
+13 996 911
-13 150 879
+14 548 573
-14 480 253
+15 566 981
-15 415 933
+16 705 863
-16 616 960
+17 280 827
-17 893 358
+18 669 419
-18 167 180
+19 690 346
-19 723 442
+20 366 460
-20 16 356
+21 170 593
-21 654 312
+22 186 412
-22 859 579
+23 100 903
-23 158 606
+24 590 909
-24 437 705
+25 43 860
-25 110 278
+26 929 223
-26 930 541
+27 464 666
-27 791 977
+28 116 48
-28 183 465
+29 133 280
-29 565 104
+30 109 957
-30 180 271
+31 706 682
-31 722 867
+32 290 248
-32 565 447
+33 693 234
-33 448 502
PRECEDENCE_SECTION
+0 -0
+1 -1
+2 -2
+3 -3
+4 -4
+5 -5
+6 -6
+7 -7
+8 -8
+9 -9
+10 -10
+11 -11
+12 -12
+13 -13
+14 -14
+15 -15
+16 -16
+17 -17
+18 -18
+19 -19
+20 -20
+21 -21
+22 -22
+23 -23
+24 -24
+25 -25
+26 -26
+27 -27
+28 -28
+29 -29
+30 -30
+31 -31
+32 -32
+33 -33
EOF
